# AMPL MODEL: ./res/solid.ampl

# Timestamp: 17 February 2025, 10:24:44 AM

param MAXWORK := 32;

param:
TNAME: TWORK :=
'alpha.pf' 20
'alpha.pm' 180
'beta.pf' 20
'beta.pm' 260
'india.pf' 100
'india.pm' 520
'lima2.pf' 60
'lima2.pm' 100
'mike2.pe' 80
'mike2.pf' 80
'mike2.pm' 320
'oscar.pe' 60
'oscar.pf' 40
'oscar.pm' 280
'whisky2.pe' 240
'whisky2.pf' 80
'whisky2.pm' 800;

set TSCOPE['alpha.pf'] :=
93 94 95 98 99 100 101 102 105 106 107 108 109 112 113 114 115 116 119 120 121 123
;

set TSCOPE['alpha.pm'] :=
3 4 7 8 9 10 11 14 15 16 17 18 21 22 23 24 25 28 29 30 31 32 35 36 37 38 39 42 43 44 45 46 49 50 51 52 53 56 57 58 59 60 63 64 65 66 67 70 71 72
73 74 77 78 79 80 81 84 85 86 87 88 91 92
;

set TSCOPE['beta.pf'] :=
175 176 177 178 179 182 183 184 185 186 189 190 191 192 193 196 197 198 199 200 203 204 205 206 207 210 211 212 213 214 217 218
;

set TSCOPE['beta.pm'] :=
3 4 7 8 9 10 11 14 15 16 17 18 21 22 23 24 25 28 29 30 31 32 35 36 37 38 39 42 43 44 45 46 49 50 51 52 53 56 57 58 59 60 63 64 65 66 67 70 71 72
73 74 77 78 79 80 81 84 85 86 87 88 91 92 93 94 95 98 99 100 101 102 105 106 107 108 109 112 113 114 115 116 119 120 121 123 126 127 128 129 130 133 134 135 136 137 140 141 142 143
144 147 148 149 150 151 154 155 156 157 158 161 162 163 164 165 168 169 170 171 172
;

set TSCOPE['india.pf'] :=
276 277 280 281 282 283 284 287 288 289 290 291 294 295 296 297 298 301 302 303 304 305
;

set TSCOPE['india.pm'] :=
3 4 7 8 9 10 11 14 15 16 17 18 21 22 23 24 25 28 29 30 31 32 35 36 37 38 39 42 43 44 45 46 49 50 51 52 53 56 57 58 59 60 63 64 65 66 67 70 71 72
73 74 77 78 79 80 81 84 85 86 87 88 91 92 93 94 95 98 99 100 101 102 105 106 107 108 109 112 113 114 115 116 119 120 121 123 126 127 128 129 130 133 134 135 136 137 140 141 142 143
144 147 148 149 150 151 154 155 156 157 158 161 162 163 164 165 168 169 170 171 172 175 176 177 178 179 182 183 184 185 186 189 190 191 192 193 196 197 198 199 200 203 204 205 206 207 210 211 212 213
214 217 218 219 220 221 224 225 226 227 228 231 232 233 234 235 238 239 240 241 242 245 246 247 248 249 252 253 254 255 256 259 260 261 262 263 266 267 268 269 270 273 274 275
;

set TSCOPE['lima2.pf'] :=
58 59 60 63
;

set TSCOPE['lima2.pm'] :=
3 4 7 8 9 10 11 14 15 16 17 18 21 22 23 24 25 28 29 30 31 32 35 36 37 38 39 42 43 44 45 46 49 50 51 52 53 56 57
;

set TSCOPE['mike2.pe'] :=
11 14 15 16
;

set TSCOPE['mike2.pf'] :=
140 141 142 143 144 147 148 149 150 151
;

set TSCOPE['mike2.pm'] :=
17 18 21 22 23 24 25 28 29 30 31 32 35 36 37 38 39 42 43 44 45 46 49 50 51 52 53 56 57 58 59 60 63 64 65 66 67 70 71 72 73 74 77 78 79 80 81 84 85 86
87 88 91 92 93 94 95 98 99 100 101 102 105 106 107 108 109 112 113 114 115 116 119 120 121 123 126 127 128 129 130 133 134 135 136 137
;

set TSCOPE['oscar.pe'] :=
177 178 179 182 183 184 185 186 189 190 191
;

set TSCOPE['oscar.pf'] :=
366 367 368 371 372 373 374 375 378 379 380 381 382 385 386 387 388 389 392 393 394 395 396
;

set TSCOPE['oscar.pm'] :=
192 193 196 197 198 199 200 203 204 205 206 207 210 211 212 213 214 217 218 219 220 221 224 225 226 227 228 231 232 233 234 235 238 239 240 241 242 245 246 247 248 249 252 253 254 255 256 259 260 261
262 263 266 267 268 269 270 273 274 275 276 277 280 281 282 283 284 287 288 289 290 291 294 295 296 297 298 301 302 303 304 305 308 309 310 311 312 315 316 317 318 319 322 323 324 325 326 329 330 331
332 333 336 337 338 339 340 343 344 345 346 347 350 351 352 353 354 357 358 359 360 361 364 365
;

set TSCOPE['whisky2.pe'] :=
177 178 179 182 183 184 185 186 189 190 191 192
;

set TSCOPE['whisky2.pf'] :=
464 465 466 469 470 471 472 473 476 477 478 479 480 483 484 485 486
;

set TSCOPE['whisky2.pm'] :=
193 196 197 198 199 200 203 204 205 206 207 210 211 212 213 214 217 218 219 220 221 224 225 226 227 228 231 232 233 234 235 238 239 240 241 242 245 246 247 248 249 252 253 254 255 256 259 260 261 262
263 266 267 268 269 270 273 274 275 276 277 280 281 282 283 284 287 288 289 290 291 294 295 296 297 298 301 302 303 304 305 308 309 310 311 312 315 316 317 318 319 322 323 324 325 326 329 330 331 332
333 336 337 338 339 340 343 344 345 346 347 350 351 352 353 354 357 358 359 360 361 364 365 366 367 368 371 372 373 374 375 378 379 380 381 382 385 386 387 388 389 392 393 394 395 396 399 400 401 402
403 406 407 408 409 410 413 414 415 416 417 420 421 422 423 424 427 428 429 430 431 434 435 436 437 438 441 442 443 444 445 448 449 450 451 452 455 456 457 458 459 462 463
;

set ENAME :=
'PM.Daniel';

set ASSIGN :=
('PM.Daniel',*)
'alpha.pf'
'alpha.pm'
'beta.pf'
'beta.pm'
'india.pf'
'india.pm'
'lima2.pf'
'lima2.pm'
'mike2.pe'
'mike2.pf'
'mike2.pm'
'oscar.pe'
'oscar.pf'
'oscar.pm'
'whisky2.pe'
'whisky2.pf'
'whisky2.pm';

param:
XBID: XBEXPERT XBTASK XBS XBE XBL XBU :=
1 'PM.Daniel' 'alpha.pf' 93 123 0 1
2 'PM.Daniel' 'alpha.pm' 2 92 2 3
3 'PM.Daniel' 'beta.pf' 173 218 0 1
4 'PM.Daniel' 'beta.pm' 2 172 2 3
5 'PM.Daniel' 'india.pf' 276 306 4 5
6 'PM.Daniel' 'india.pm' 2 275 2 3
7 'PM.Daniel' 'lima2.pf' 58 63 15 16
8 'PM.Daniel' 'lima2.pm' 2 57 2 3
9 'PM.Daniel' 'mike2.pe' 11 16 20 21
10 'PM.Daniel' 'mike2.pf' 138 153 8 9
11 'PM.Daniel' 'mike2.pm' 17 137 3 4
12 'PM.Daniel' 'oscar.pe' 177 191 5 6
13 'PM.Daniel' 'oscar.pf' 366 397 1 2
14 'PM.Daniel' 'oscar.pm' 192 365 2 3
15 'PM.Daniel' 'whisky2.pe' 177 192 20 21
16 'PM.Daniel' 'whisky2.pf' 464 486 4 5
17 'PM.Daniel' 'whisky2.pm' 193 463 4 5;

param:
EBID: EBEXPERT EBS EBE EBL EBU :=
;

param:
PNAME: PERS PERE :=
'Jan.25' 1 16
'Feb.25' 17 45
'Mar.25' 46 76
'Apr.25' 77 105
'May.25' 106 139
'Jun.25' 140 170
'Jul.25' 171 199
'Aug.25' 200 230
'Sep.25' 231 259
'Oct.25' 260 289
'Nov.25' 290 317
'Dec.25' 318 346;

param:
EXPPER: PBL PBU :=
['PM.Daniel',*]
'Apr.25' 0 720
'Aug.25' 0 720
'Dec.25' 0 720
'Feb.25' 0 720
'Jan.25' 0 720
'Jul.25' 0 720
'Jun.25' 0 720
'Mar.25' 0 720
'May.25' 0 720
'Nov.25' 0 720
'Oct.25' 0 720
'Sep.25' 0 720;

